TCS_Benchmarks/redos_fix/snort1_output_distinct_2529_2528_6_0.txt
[^\n\r]*
([^\n\r]*)([tT][sS][aA]\/[^\n\r]*[tT][sS]2\/)([^\n\r]*)
[^\n\r]*